(declare-const a Real)
(declare-const b Real)
(declare-const c Real)
(assert (= (* a b c) 1))
(assert (> a 0))
(assert (> b 0))
(assert (> c 0))
(assert (not (<= (+ (* (pow a (/ 5 3)) (pow (* b c) (/ 2 3))) (* (pow a (pow 3 -1)) (pow (* b c) (/ 4 3))) (* (pow b (/ 5 3)) (pow (* a c) (/ 2 3))) (* (pow b (pow 3 -1)) (pow (* a c) (/ 4 3))) (* (pow c (/ 5 3)) (pow (* a b) (/ 2 3))) (* (pow c (pow 3 -1)) (pow (* a b) (/ 4 3))) (* (pow (* (pow a 3) (pow b 3) (pow c 3) (pow (* b c) b)) (pow (+ 3 b (* b (pow a 2))) -1)) (+ -3 (* -1 b) (* -1 b (pow a 2)))) (* -1 a (pow c 2))) 0)))
(check-sat)
(get-model)
(exit)